176
216
116
60
104
288
208
228
130
178
166
131
95
286
122
277
80
67
75
197
89
126
216
103
145
140
126
162
87
242
137
139
262
146
72
246
105
179
133
114
151
125
77
100
97
127
218
102
118
128
54
283
263
84
83
89
164
236
158
73
152
178
171
0
189
168
91
143
0
162
160
112
204
241
203
111
111
101
140
68
576
107
238
161
179
556
119
247
120
111
97
51
241
122
112
106
198
68
166
106
